3 2 2
2 2 1 43 2 36 2 1 64 2 71
2 2 1 34 2 53 2 1 36 2 21
2 2 1 21 2 35 2 1 43 2 37

6 3 4 4 3 4 
3 6 4 3 3 4 
3 4 6 5 4 3 
4 3 4 6 3 3 
4 3 3 4 6 4 
3 5 3 4 3 6 
6 5 3 3 3 3 
3 6 3 5 4 3 
4 3 6 3 3 3 
3 3 3 6 4 3 
4 5 4 5 6 3 
4 4 4 4 3 6 
